100 94830

 328 785
659 113
125 382
508 775
19 418
392 973
75 736
476 16
422 880
445 101
46 141
362 735
757 865
369 537
716 290
370 352
424 343
564 327
951 243
109 609
33 901
608 308
950 187
990 839
485 742
469 931
645 166
556 145
635 542
874 615
747 481
497 599
462 181
640 480
456 659
458 433
17 680
175 452
489 334
823 304
279 411
523 24
345 669
105 846
959 355
855 47
79 987
720 264
348 127
995 370
303 739
239 294
568 575
836 416
193 118
710 331
62 725
919 613
82 120
915 164
491 641
449 814
974 350
991 596
651 171
128 312
507 21
530 769
515 402
570 817
19 709
712 829
713 286
116 186
571 972
569 718
683 835
86 14
627 355
281 743
508 78
774 568
706 430
119 18
592 236
970 285
157 112
853 632
703 243
775 278
282 899
288 468
907 393
360 724
64 910
601 26
125 449
797 611
642 319
875 773
